PROBLEM NAME: eil51_n9
KNAPSACK DATA TYPE: multiple strongly correlated
DIMENSION: 9
NUMBER OF ITEMS: 80
CAPACITY OF KNAPSACK: 21801
MIN SPEED: 0.1
MAX SPEED: 1
RENTING RATIO: 34.80
EDGE_WEIGHT_TYPE: CEIL_2D
NODE_COORD_SECTION	(INDEX, X, Y):
1	17	63
2	31	62
3	36	16
4	52	41
5	27	23
6	62	63
7	32	22
8	5	6
9	56	37
ITEMS SECTION	(INDEX, PROFIT, WEIGHT, ASSIGNED NODE NUMBER):
1	1179	979	2
2	1165	965	2
3	1141	941	2
4	1128	928	2
5	1121	921	2
6	1115	915	2
7	1104	904	2
8	1092	792	2
9	1086	786	2
10	1068	868	2
11	1061	861	6
12	1048	848	6
13	1039	839	6
14	1027	827	6
15	1014	714	6
16	1014	814	6
17	1013	813	6
18	990	790	6
19	989	789	6
20	987	787	6
21	973	773	4
22	953	753	4
23	952	752	4
24	948	748	4
25	910	710	4
26	882	682	4
27	852	652	4
28	847	647	4
29	823	623	4
30	816	516	4
31	805	605	9
32	785	585	9
33	775	575	9
34	768	568	9
35	760	560	9
36	759	559	9
37	745	545	9
38	742	542	9
39	737	537	9
40	726	526	9
41	688	488	3
42	677	477	3
43	625	425	3
44	600	300	3
45	593	393	3
46	586	386	3
47	576	376	3
48	574	374	3
49	574	374	3
50	573	373	3
51	564	264	7
52	564	364	7
53	563	363	7
54	563	363	7
55	558	358	7
56	555	355	7
57	553	353	7
58	534	234	7
59	520	320	7
60	514	314	7
61	513	313	5
62	492	292	5
63	480	180	5
64	456	156	5
65	445	245	5
66	442	242	5
67	429	229	5
68	425	225	5
69	417	217	5
70	405	205	5
71	355	155	8
72	312	112	8
73	311	111	8
74	311	111	8
75	306	106	8
76	283	83	8
77	270	70	8
78	250	50	8
79	249	49	8
80	226	26	8
